254569
21,46,16,8,5,75,6,33,79,59,61,28,30,2,32,68,37,45,62,10,14,76,67,70,66,80,20,58,17,7,40,64,1,29,54,18,71,82,53,50,4,63,39,65,48,42,22,19,73,13,24,44,74,11,35,38,83,69,25,15,78,43,81,49,3,12,57,72,47,27,56,51,34,60,23,55,41,52,31,26,36,77,9